c CNF file generated from BLIF2CNF script.
c Original BLIF file was blif/in3.blif
p cnf 343 2675
-1 -19 0
2 -19 0
3 -19 0
4 -19 0
7 -19 0
19 1 -2 -3 -4 -7  0
-19 18 0
1 -20 0
-2 -20 0
3 -20 0
-4 -20 0
-14 -20 0
20 -1 2 -3 4 14  0
-20 18 0
1 -21 0
-2 -21 0
3 -21 0
4 -21 0
15 -21 0
21 -1 2 -3 -4 -15  0
-21 18 0
1 -22 0
-2 -22 0
3 -22 0
4 -22 0
-15 -22 0
22 -1 2 -3 -4 15  0
-22 18 0
1 -23 0
-2 -23 0
3 -23 0
-4 -23 0
-15 -23 0
23 -1 2 -3 4 15  0
-23 18 0
1 -24 0
2 -24 0
-3 -24 0
-4 -24 0
17 -24 0
24 -1 -2 3 4 -17  0
-24 18 0
-1 -25 0
2 -25 0
3 -25 0
4 -25 0
-7 -25 0
9 -25 0
25 1 -2 -3 -4 7 -9  0
-25 18 0
1 -26 0
2 -26 0
-3 -26 0
-4 -26 0
9 -26 0
-13 -26 0
26 -1 -2 3 4 -9 13  0
-26 18 0
1 -27 0
-2 -27 0
3 -27 0
-4 -27 0
14 -27 0
15 -27 0
27 -1 2 -3 4 -14 -15  0
-27 18 0
-1 -28 0
-2 -28 0
-3 -28 0
-4 -28 0
10 -28 0
-17 -28 0
28 1 2 3 4 -10 17  0
-28 18 0
-1 -29 0
2 -29 0
3 -29 0
4 -29 0
-7 -29 0
8 -29 0
-9 -29 0
29 1 -2 -3 -4 7 -8 9  0
-29 18 0
-1 -30 0
2 -30 0
3 -30 0
4 -30 0
-7 -30 0
-8 -30 0
-9 -30 0
30 1 -2 -3 -4 7 8 9  0
-30 18 0
1 -31 0
2 -31 0
-3 -31 0
-4 -31 0
9 -31 0
-12 -31 0
13 -31 0
31 -1 -2 3 4 -9 12 -13  0
-31 18 0
1 -32 0
2 -32 0
-3 -32 0
-4 -32 0
-9 -32 0
16 -32 0
-17 -32 0
32 -1 -2 3 4 9 -16 17  0
-32 18 0
1 -33 0
2 -33 0
-3 -33 0
-4 -33 0
9 -33 0
12 -33 0
13 -33 0
-17 -33 0
33 -1 -2 3 4 -9 -12 -13 17  0
-33 18 0
1 -34 0
2 -34 0
-3 -34 0
-4 -34 0
7 -34 0
8 -34 0
-16 -34 0
-17 -34 0
34 -1 -2 3 4 -7 -8 16 17  0
-34 18 0
1 -35 0
2 -35 0
-3 -35 0
-4 -35 0
5 -35 0
-9 -35 0
-16 -35 0
-17 -35 0
35 -1 -2 3 4 -5 9 16 17  0
-35 18 0
1 -36 0
2 -36 0
-3 -36 0
-4 -36 0
-5 -36 0
-6 -36 0
7 -36 0
-9 -36 0
11 -36 0
36 -1 -2 3 4 5 6 -7 9 -11  0
-36 18 0
1 -37 0
2 -37 0
-3 -37 0
-4 -37 0
-5 -37 0
-6 -37 0
7 -37 0
-8 -37 0
-9 -37 0
-11 -37 0
-16 -37 0
-17 -37 0
37 -1 -2 3 4 5 6 -7 8 9 11 16 17  0
-37 18 0
-18 19 20 21 22 23 24 25 26 27 28 29 30 31 32 33 34 35 36 37  0
-1 -42 0
-2 -42 0
3 -42 0
9 -42 0
42 1 2 -3 -9  0
-42 41 0
-1 -43 0
2 -43 0
3 -43 0
4 -43 0
7 -43 0
43 1 -2 -3 -4 -7  0
-43 41 0
-1 -44 0
-2 -44 0
3 -44 0
7 -44 0
-9 -44 0
44 1 2 -3 -7 9  0
-44 41 0
-1 -45 0
-2 -45 0
3 -45 0
-7 -45 0
-9 -45 0
45 1 2 -3 7 9  0
-45 41 0
1 -46 0
-2 -46 0
3 -46 0
4 -46 0
15 -46 0
46 -1 2 -3 -4 -15  0
-46 41 0
-1 -47 0
2 -47 0
-3 -47 0
39 -47 0
15 -47 0
47 1 -2 3 -39 -15  0
-47 41 0
-1 -48 0
2 -48 0
-3 -48 0
14 -48 0
-15 -48 0
48 1 -2 3 -14 15  0
-48 41 0
-1 -49 0
2 -49 0
-3 -49 0
-14 -49 0
-15 -49 0
49 1 -2 3 14 15  0
-49 41 0
1 -50 0
2 -50 0
-3 -50 0
-4 -50 0
17 -50 0
50 -1 -2 3 4 -17  0
-50 41 0
-1 -51 0
2 -51 0
3 -51 0
4 -51 0
-7 -51 0
9 -51 0
51 1 -2 -3 -4 7 -9  0
-51 41 0
1 -52 0
2 -52 0
-3 -52 0
-4 -52 0
9 -52 0
-13 -52 0
52 -1 -2 3 4 -9 13  0
-52 41 0
-1 -53 0
2 -53 0
-3 -53 0
6 -53 0
-39 -53 0
15 -53 0
53 1 -2 3 -6 39 -15  0
-53 41 0
-1 -54 0
2 -54 0
-3 -54 0
-6 -54 0
-39 -54 0
15 -54 0
54 1 -2 3 6 39 -15  0
-54 41 0
-1 -55 0
2 -55 0
3 -55 0
-4 -55 0
9 -55 0
-17 -55 0
55 1 -2 -3 4 -9 17  0
-55 41 0
1 -56 0
2 -56 0
-3 -56 0
-4 -56 0
9 -56 0
-12 -56 0
13 -56 0
56 -1 -2 3 4 -9 12 -13  0
-56 41 0
1 -57 0
2 -57 0
-3 -57 0
-4 -57 0
-9 -57 0
16 -57 0
-17 -57 0
57 -1 -2 3 4 9 -16 17  0
-57 41 0
-1 -58 0
2 -58 0
3 -58 0
-4 -58 0
5 -58 0
-9 -58 0
-16 -58 0
-17 -58 0
58 1 -2 -3 4 -5 9 16 17  0
-58 41 0
1 -59 0
2 -59 0
-3 -59 0
-4 -59 0
-5 -59 0
-6 -59 0
7 -59 0
-9 -59 0
11 -59 0
59 -1 -2 3 4 5 6 -7 9 -11  0
-59 41 0
-1 -60 0
2 -60 0
3 -60 0
-4 -60 0
-6 -60 0
7 -60 0
-9 -60 0
-16 -60 0
-17 -60 0
60 1 -2 -3 4 6 -7 9 16 17  0
-60 41 0
-1 -61 0
2 -61 0
3 -61 0
-4 -61 0
-5 -61 0
8 -61 0
-9 -61 0
-16 -61 0
-17 -61 0
61 1 -2 -3 4 5 -8 9 16 17  0
-61 41 0
-1 -62 0
2 -62 0
3 -62 0
-4 -62 0
-5 -62 0
-8 -62 0
38 -62 0
-9 -62 0
-16 -62 0
-17 -62 0
62 1 -2 -3 4 5 8 -38 9 16 17  0
-62 41 0
-1 -63 0
2 -63 0
3 -63 0
-4 -63 0
-5 -63 0
-6 -63 0
-7 -63 0
-8 -63 0
-9 -63 0
39 -63 0
-16 -63 0
-17 -63 0
63 1 -2 -3 4 5 6 7 8 9 -39 16 17  0
-63 41 0
-1 -64 0
2 -64 0
3 -64 0
-4 -64 0
-5 -64 0
-6 -64 0
-7 -64 0
-8 -64 0
-9 -64 0
-39 -64 0
-40 -64 0
-16 -64 0
-17 -64 0
64 1 -2 -3 4 5 6 7 8 9 39 40 16 17  0
-64 41 0
-41 42 43 44 45 46 47 48 49 50 51 52 53 54 55 56 57 58 59 60 61 62 63 64  0
1 -68 0
-2 -68 0
3 -68 0
-4 -68 0
-14 -68 0
68 -1 2 -3 4 14  0
-68 67 0
1 -69 0
-2 -69 0
3 -69 0
4 -69 0
15 -69 0
69 -1 2 -3 -4 -15  0
-69 67 0
-1 -70 0
2 -70 0
-3 -70 0
39 -70 0
15 -70 0
70 1 -2 3 -39 -15  0
-70 67 0
1 -71 0
-2 -71 0
3 -71 0
4 -71 0
-15 -71 0
71 -1 2 -3 -4 15  0
-71 67 0
1 -72 0
-2 -72 0
3 -72 0
-4 -72 0
-15 -72 0
72 -1 2 -3 4 15  0
-72 67 0
-1 -73 0
2 -73 0
-3 -73 0
6 -73 0
-39 -73 0
15 -73 0
73 1 -2 3 -6 39 -15  0
-73 67 0
-1 -74 0
2 -74 0
-3 -74 0
-6 -74 0
-39 -74 0
15 -74 0
74 1 -2 3 6 39 -15  0
-74 67 0
1 -75 0
-2 -75 0
3 -75 0
-4 -75 0
14 -75 0
15 -75 0
75 -1 2 -3 4 -14 -15  0
-75 67 0
-1 -76 0
2 -76 0
3 -76 0
-4 -76 0
9 -76 0
-17 -76 0
76 1 -2 -3 4 -9 17  0
-76 67 0
-1 -77 0
-2 -77 0
-3 -77 0
-4 -77 0
10 -77 0
-17 -77 0
77 1 2 3 4 -10 17  0
-77 67 0
-1 -78 0
-2 -78 0
-3 -78 0
-4 -78 0
66 -78 0
-10 -78 0
14 -78 0
78 1 2 3 4 -66 10 -14  0
-78 67 0
-1 -79 0
-2 -79 0
-3 -79 0
-4 -79 0
65 -79 0
-66 -79 0
-10 -79 0
14 -79 0
79 1 2 3 4 -65 66 10 -14  0
-79 67 0
1 -80 0
2 -80 0
-3 -80 0
-4 -80 0
9 -80 0
12 -80 0
13 -80 0
-17 -80 0
80 -1 -2 3 4 -9 -12 -13 17  0
-80 67 0
1 -81 0
2 -81 0
-3 -81 0
-4 -81 0
7 -81 0
8 -81 0
-16 -81 0
-17 -81 0
81 -1 -2 3 4 -7 -8 16 17  0
-81 67 0
-1 -82 0
2 -82 0
3 -82 0
-4 -82 0
5 -82 0
-9 -82 0
-16 -82 0
-17 -82 0
82 1 -2 -3 4 -5 9 16 17  0
-82 67 0
1 -83 0
2 -83 0
-3 -83 0
-4 -83 0
5 -83 0
-9 -83 0
-16 -83 0
-17 -83 0
83 -1 -2 3 4 -5 9 16 17  0
-83 67 0
-1 -84 0
2 -84 0
3 -84 0
-4 -84 0
-6 -84 0
7 -84 0
-9 -84 0
-16 -84 0
-17 -84 0
84 1 -2 -3 4 6 -7 9 16 17  0
-84 67 0
-1 -85 0
2 -85 0
3 -85 0
-4 -85 0
-5 -85 0
8 -85 0
-9 -85 0
-16 -85 0
-17 -85 0
85 1 -2 -3 4 5 -8 9 16 17  0
-85 67 0
-1 -86 0
2 -86 0
3 -86 0
-4 -86 0
-5 -86 0
-8 -86 0
38 -86 0
-9 -86 0
-16 -86 0
-17 -86 0
86 1 -2 -3 4 5 8 -38 9 16 17  0
-86 67 0
1 -87 0
2 -87 0
-3 -87 0
-4 -87 0
-5 -87 0
-6 -87 0
7 -87 0
-8 -87 0
-9 -87 0
-11 -87 0
-16 -87 0
-17 -87 0
87 -1 -2 3 4 5 6 -7 8 9 11 16 17  0
-87 67 0
-1 -88 0
2 -88 0
3 -88 0
-4 -88 0
-5 -88 0
-6 -88 0
-7 -88 0
-8 -88 0
-9 -88 0
39 -88 0
-16 -88 0
-17 -88 0
88 1 -2 -3 4 5 6 7 8 9 -39 16 17  0
-88 67 0
-1 -89 0
2 -89 0
3 -89 0
-4 -89 0
-5 -89 0
-6 -89 0
-7 -89 0
-8 -89 0
-9 -89 0
-39 -89 0
-40 -89 0
-16 -89 0
-17 -89 0
89 1 -2 -3 4 5 6 7 8 9 39 40 16 17  0
-89 67 0
-67 68 69 70 71 72 73 74 75 76 77 78 79 80 81 82 83 84 85 86 87 88 89  0
1 -91 0
-2 -91 0
-3 -91 0
-4 -91 0
91 -1 2 3 4  0
-91 90 0
-2 -92 0
-3 -92 0
4 -92 0
38 -92 0
92 2 3 -4 -38  0
-92 90 0
1 -93 0
-2 -93 0
3 -93 0
4 -93 0
-15 -93 0
93 -1 2 -3 -4 15  0
-93 90 0
1 -94 0
2 -94 0
-3 -94 0
-4 -94 0
17 -94 0
94 -1 -2 3 4 -17  0
-94 90 0
1 -95 0
2 -95 0
-3 -95 0
-4 -95 0
9 -95 0
-13 -95 0
95 -1 -2 3 4 -9 13  0
-95 90 0
1 -96 0
-2 -96 0
3 -96 0
-4 -96 0
14 -96 0
15 -96 0
96 -1 2 -3 4 -14 -15  0
-96 90 0
-1 -97 0
2 -97 0
3 -97 0
-4 -97 0
9 -97 0
-17 -97 0
97 1 -2 -3 4 -9 17  0
-97 90 0
1 -98 0
2 -98 0
-3 -98 0
-4 -98 0
9 -98 0
-12 -98 0
13 -98 0
98 -1 -2 3 4 -9 12 -13  0
-98 90 0
1 -99 0
2 -99 0
-3 -99 0
-4 -99 0
-9 -99 0
16 -99 0
-17 -99 0
99 -1 -2 3 4 9 -16 17  0
-99 90 0
-1 -100 0
2 -100 0
3 -100 0
-4 -100 0
5 -100 0
-9 -100 0
-16 -100 0
-17 -100 0
100 1 -2 -3 4 -5 9 16 17  0
-100 90 0
1 -101 0
2 -101 0
-3 -101 0
-4 -101 0
-5 -101 0
-6 -101 0
7 -101 0
-9 -101 0
11 -101 0
101 -1 -2 3 4 5 6 -7 9 -11  0
-101 90 0
-1 -102 0
2 -102 0
3 -102 0
-4 -102 0
-6 -102 0
7 -102 0
-9 -102 0
-16 -102 0
-17 -102 0
102 1 -2 -3 4 6 -7 9 16 17  0
-102 90 0
-1 -103 0
2 -103 0
3 -103 0
-4 -103 0
-5 -103 0
8 -103 0
-9 -103 0
-16 -103 0
-17 -103 0
103 1 -2 -3 4 5 -8 9 16 17  0
-103 90 0
-1 -104 0
2 -104 0
3 -104 0
-4 -104 0
-5 -104 0
-8 -104 0
38 -104 0
-9 -104 0
-16 -104 0
-17 -104 0
104 1 -2 -3 4 5 8 -38 9 16 17  0
-104 90 0
-1 -105 0
2 -105 0
3 -105 0
-4 -105 0
-5 -105 0
-6 -105 0
-7 -105 0
-8 -105 0
-9 -105 0
39 -105 0
-16 -105 0
-17 -105 0
105 1 -2 -3 4 5 6 7 8 9 -39 16 17  0
-105 90 0
-1 -106 0
2 -106 0
3 -106 0
-4 -106 0
-5 -106 0
-6 -106 0
-7 -106 0
-8 -106 0
-9 -106 0
-39 -106 0
-40 -106 0
-16 -106 0
-17 -106 0
106 1 -2 -3 4 5 6 7 8 9 39 40 16 17  0
-106 90 0
-90 91 92 93 94 95 96 97 98 99 100 101 102 103 104 105 106  0
-1 -113 0
2 -113 0
3 -113 0
-4 -113 0
-109 -113 0
-9 -113 0
-110 -113 0
111 -113 0
-39 -113 0
40 -113 0
-16 -113 0
-17 -113 0
113 1 -2 -3 4 109 9 110 -111 39 -40 16 17  0
-113 112 0
-1 -114 0
2 -114 0
3 -114 0
-4 -114 0
107 -114 0
-108 -114 0
109 -114 0
-9 -114 0
-110 -114 0
111 -114 0
-39 -114 0
40 -114 0
-16 -114 0
-17 -114 0
114 1 -2 -3 4 -107 108 -109 9 110 -111 39 -40 16 17  0
-114 112 0
-112 113 114  0
1 -117 0
2 -117 0
-3 -117 0
4 -117 0
117 -1 -2 3 -4  0
-117 116 0
-2 -118 0
-3 -118 0
4 -118 0
-38 -118 0
118 2 3 -4 38  0
-118 116 0
1 -119 0
2 -119 0
3 -119 0
9 -119 0
-115 -119 0
119 -1 -2 -3 -9 115  0
-119 116 0
1 -120 0
2 -120 0
3 -120 0
-9 -120 0
-115 -120 0
120 -1 -2 -3 9 115  0
-120 116 0
-1 -121 0
2 -121 0
3 -121 0
-4 -121 0
17 -121 0
121 1 -2 -3 4 -17  0
-121 116 0
-1 -122 0
2 -122 0
-3 -122 0
-5 -122 0
-6 -122 0
-7 -122 0
15 -122 0
122 1 -2 3 5 6 7 -15  0
-122 116 0
-1 -123 0
2 -123 0
3 -123 0
-4 -123 0
-9 -123 0
16 -123 0
-17 -123 0
123 1 -2 -3 4 9 -16 17  0
-123 116 0
-1 -124 0
2 -124 0
3 -124 0
-4 -124 0
-9 -124 0
110 -124 0
111 -124 0
-39 -124 0
40 -124 0
-16 -124 0
-17 -124 0
124 1 -2 -3 4 9 -110 -111 39 -40 16 17  0
-124 116 0
-1 -125 0
2 -125 0
3 -125 0
-4 -125 0
-107 -125 0
109 -125 0
-9 -125 0
-110 -125 0
111 -125 0
-39 -125 0
40 -125 0
-16 -125 0
-17 -125 0
125 1 -2 -3 4 107 -109 9 110 -111 39 -40 16 17  0
-125 116 0
-1 -126 0
2 -126 0
3 -126 0
-4 -126 0
107 -126 0
108 -126 0
109 -126 0
-9 -126 0
-110 -126 0
111 -126 0
-39 -126 0
40 -126 0
-16 -126 0
-17 -126 0
126 1 -2 -3 4 -107 -108 -109 9 110 -111 39 -40 16 17  0
-126 116 0
-116 117 118 119 120 121 122 123 124 125 126  0
1 -128 0
2 -128 0
3 -128 0
115 -128 0
128 -1 -2 -3 -115  0
-128 127 0
-127 128  0
-1 -130 0
-2 -130 0
3 -130 0
9 -130 0
130 1 2 -3 -9  0
-130 129 0
-1 -131 0
-2 -131 0
3 -131 0
7 -131 0
-9 -131 0
131 1 2 -3 -7 9  0
-131 129 0
-1 -132 0
-2 -132 0
3 -132 0
-7 -132 0
-9 -132 0
132 1 2 -3 7 9  0
-132 129 0
-1 -133 0
-2 -133 0
-3 -133 0
-4 -133 0
10 -133 0
-17 -133 0
133 1 2 3 4 -10 17  0
-133 129 0
-129 130 131 132 133  0
1 -135 0
-2 -135 0
3 -135 0
135 -1 2 -3  0
-135 134 0
-1 -136 0
-2 -136 0
-3 -136 0
-4 -136 0
10 -136 0
-17 -136 0
136 1 2 3 4 -10 17  0
-136 134 0
1 -137 0
2 -137 0
-3 -137 0
-4 -137 0
9 -137 0
12 -137 0
13 -137 0
-17 -137 0
137 -1 -2 3 4 -9 -12 -13 17  0
-137 134 0
1 -138 0
2 -138 0
-3 -138 0
-4 -138 0
7 -138 0
8 -138 0
-16 -138 0
-17 -138 0
138 -1 -2 3 4 -7 -8 16 17  0
-138 134 0
1 -139 0
2 -139 0
-3 -139 0
-4 -139 0
5 -139 0
-9 -139 0
-16 -139 0
-17 -139 0
139 -1 -2 3 4 -5 9 16 17  0
-139 134 0
1 -140 0
2 -140 0
-3 -140 0
-4 -140 0
-5 -140 0
-6 -140 0
7 -140 0
-8 -140 0
-9 -140 0
-11 -140 0
-16 -140 0
-17 -140 0
140 -1 -2 3 4 5 6 -7 8 9 11 16 17  0
-140 134 0
-134 135 136 137 138 139 140  0
1 -142 0
-2 -142 0
3 -142 0
4 -142 0
15 -142 0
142 -1 2 -3 -4 -15  0
-142 141 0
-1 -143 0
2 -143 0
-3 -143 0
39 -143 0
15 -143 0
143 1 -2 3 -39 -15  0
-143 141 0
1 -144 0
-2 -144 0
3 -144 0
4 -144 0
-15 -144 0
144 -1 2 -3 -4 15  0
-144 141 0
-1 -145 0
2 -145 0
-3 -145 0
6 -145 0
-39 -145 0
15 -145 0
145 1 -2 3 -6 39 -15  0
-145 141 0
-1 -146 0
2 -146 0
-3 -146 0
-6 -146 0
-39 -146 0
15 -146 0
146 1 -2 3 6 39 -15  0
-146 141 0
1 -147 0
-2 -147 0
3 -147 0
-4 -147 0
14 -147 0
15 -147 0
147 -1 2 -3 4 -14 -15  0
-147 141 0
-141 142 143 144 145 146 147  0
-1 -149 0
-2 -149 0
3 -149 0
9 -149 0
149 1 2 -3 -9  0
-149 148 0
-1 -150 0
-2 -150 0
3 -150 0
7 -150 0
-9 -150 0
150 1 2 -3 -7 9  0
-150 148 0
-1 -151 0
-2 -151 0
3 -151 0
-7 -151 0
-9 -151 0
151 1 2 -3 7 9  0
-151 148 0
1 -152 0
-2 -152 0
3 -152 0
-4 -152 0
-14 -152 0
152 -1 2 -3 4 14  0
-152 148 0
1 -153 0
-2 -153 0
3 -153 0
-4 -153 0
-15 -153 0
153 -1 2 -3 4 15  0
-153 148 0
-1 -154 0
-2 -154 0
-3 -154 0
-4 -154 0
10 -154 0
-17 -154 0
154 1 2 3 4 -10 17  0
-154 148 0
1 -155 0
2 -155 0
-3 -155 0
-4 -155 0
9 -155 0
12 -155 0
13 -155 0
-17 -155 0
155 -1 -2 3 4 -9 -12 -13 17  0
-155 148 0
1 -156 0
2 -156 0
-3 -156 0
-4 -156 0
7 -156 0
8 -156 0
-16 -156 0
-17 -156 0
156 -1 -2 3 4 -7 -8 16 17  0
-156 148 0
1 -157 0
2 -157 0
-3 -157 0
-4 -157 0
5 -157 0
-9 -157 0
-16 -157 0
-17 -157 0
157 -1 -2 3 4 -5 9 16 17  0
-157 148 0
1 -158 0
2 -158 0
-3 -158 0
-4 -158 0
-5 -158 0
-6 -158 0
7 -158 0
-8 -158 0
-9 -158 0
-11 -158 0
-16 -158 0
-17 -158 0
158 -1 -2 3 4 5 6 -7 8 9 11 16 17  0
-158 148 0
-148 149 150 151 152 153 154 155 156 157 158  0
-1 -160 0
-2 -160 0
-3 -160 0
-4 -160 0
66 -160 0
-10 -160 0
14 -160 0
160 1 2 3 4 -66 10 -14  0
-160 159 0
-1 -161 0
-2 -161 0
-3 -161 0
-4 -161 0
65 -161 0
-66 -161 0
-10 -161 0
14 -161 0
161 1 2 3 4 -65 66 10 -14  0
-161 159 0
-159 160 161  0
-1 -164 0
2 -164 0
-3 -164 0
7 -164 0
164 1 -2 3 -7  0
-164 163 0
-1 -165 0
-2 -165 0
3 -165 0
9 -165 0
165 1 2 -3 -9  0
-165 163 0
-1 -166 0
2 -166 0
3 -166 0
4 -166 0
7 -166 0
166 1 -2 -3 -4 -7  0
-166 163 0
-1 -167 0
2 -167 0
-3 -167 0
-7 -167 0
9 -167 0
167 1 -2 3 7 -9  0
-167 163 0
-1 -168 0
-2 -168 0
3 -168 0
7 -168 0
-9 -168 0
168 1 2 -3 -7 9  0
-168 163 0
1 -169 0
-2 -169 0
3 -169 0
-4 -169 0
-14 -169 0
169 -1 2 -3 4 14  0
-169 163 0
1 -170 0
-2 -170 0
3 -170 0
4 -170 0
-15 -170 0
170 -1 2 -3 -4 15  0
-170 163 0
1 -171 0
-2 -171 0
3 -171 0
-4 -171 0
-15 -171 0
171 -1 2 -3 4 15  0
-171 163 0
-1 -172 0
2 -172 0
3 -172 0
4 -172 0
-7 -172 0
9 -172 0
172 1 -2 -3 -4 7 -9  0
-172 163 0
-1 -173 0
2 -173 0
3 -173 0
-4 -173 0
9 -173 0
-17 -173 0
173 1 -2 -3 4 -9 17  0
-173 163 0
-1 -174 0
-2 -174 0
-3 -174 0
-4 -174 0
10 -174 0
-17 -174 0
174 1 2 3 4 -10 17  0
-174 163 0
-1 -175 0
-2 -175 0
-3 -175 0
-4 -175 0
66 -175 0
-10 -175 0
14 -175 0
175 1 2 3 4 -66 10 -14  0
-175 163 0
-1 -176 0
-2 -176 0
-3 -176 0
-4 -176 0
66 -176 0
-10 -176 0
-14 -176 0
176 1 2 3 4 -66 10 14  0
-176 163 0
1 -177 0
-2 -177 0
3 -177 0
-4 -177 0
14 -177 0
15 -177 0
-162 -177 0
177 -1 2 -3 4 -14 -15 162  0
-177 163 0
-1 -178 0
-2 -178 0
-3 -178 0
-4 -178 0
65 -178 0
-66 -178 0
-10 -178 0
14 -178 0
178 1 2 3 4 -65 66 10 -14  0
-178 163 0
-1 -179 0
-2 -179 0
-3 -179 0
-4 -179 0
65 -179 0
-66 -179 0
-10 -179 0
-14 -179 0
179 1 2 3 4 -65 66 10 14  0
-179 163 0
1 -180 0
2 -180 0
-3 -180 0
-4 -180 0
9 -180 0
12 -180 0
13 -180 0
-17 -180 0
180 -1 -2 3 4 -9 -12 -13 17  0
-180 163 0
1 -181 0
2 -181 0
-3 -181 0
-4 -181 0
7 -181 0
8 -181 0
-16 -181 0
-17 -181 0
181 -1 -2 3 4 -7 -8 16 17  0
-181 163 0
1 -182 0
2 -182 0
-3 -182 0
-4 -182 0
5 -182 0
-9 -182 0
-16 -182 0
-17 -182 0
182 -1 -2 3 4 -5 9 16 17  0
-182 163 0
-1 -183 0
2 -183 0
3 -183 0
-4 -183 0
7 -183 0
-9 -183 0
-16 -183 0
-17 -183 0
183 1 -2 -3 4 -7 9 16 17  0
-183 163 0
1 -184 0
2 -184 0
-3 -184 0
-4 -184 0
-5 -184 0
-6 -184 0
7 -184 0
-8 -184 0
-9 -184 0
-11 -184 0
-16 -184 0
-17 -184 0
184 -1 -2 3 4 5 6 -7 8 9 11 16 17  0
-184 163 0
-1 -185 0
2 -185 0
3 -185 0
-4 -185 0
-109 -185 0
-9 -185 0
-110 -185 0
111 -185 0
-39 -185 0
40 -185 0
-16 -185 0
-17 -185 0
185 1 -2 -3 4 109 9 110 -111 39 -40 16 17  0
-185 163 0
-1 -186 0
2 -186 0
3 -186 0
-4 -186 0
107 -186 0
-108 -186 0
109 -186 0
-9 -186 0
-110 -186 0
111 -186 0
-39 -186 0
40 -186 0
-16 -186 0
-17 -186 0
186 1 -2 -3 4 -107 108 -109 9 110 -111 39 -40 16 17  0
-186 163 0
-163 164 165 166 167 168 169 170 171 172 173 174 175 176 177 178 179 180 181 182 183 184 185 186  0
-1 -188 0
-2 -188 0
-3 -188 0
-4 -188 0
10 -188 0
-17 -188 0
188 1 2 3 4 -10 17  0
-188 187 0
1 -189 0
2 -189 0
-3 -189 0
-4 -189 0
9 -189 0
12 -189 0
13 -189 0
-17 -189 0
189 -1 -2 3 4 -9 -12 -13 17  0
-189 187 0
1 -190 0
2 -190 0
-3 -190 0
-4 -190 0
7 -190 0
8 -190 0
-16 -190 0
-17 -190 0
190 -1 -2 3 4 -7 -8 16 17  0
-190 187 0
1 -191 0
2 -191 0
-3 -191 0
-4 -191 0
5 -191 0
-9 -191 0
-16 -191 0
-17 -191 0
191 -1 -2 3 4 -5 9 16 17  0
-191 187 0
1 -192 0
2 -192 0
-3 -192 0
-4 -192 0
-5 -192 0
-6 -192 0
7 -192 0
-8 -192 0
-9 -192 0
-11 -192 0
-16 -192 0
-17 -192 0
192 -1 -2 3 4 5 6 -7 8 9 11 16 17  0
-192 187 0
-187 188 189 190 191 192  0
-2 -194 0
-3 -194 0
194 2 3  0
-194 193 0
1 -195 0
2 -195 0
-3 -195 0
4 -195 0
195 -1 -2 3 -4  0
-195 193 0
-1 -196 0
-2 -196 0
3 -196 0
9 -196 0
196 1 2 -3 -9  0
-196 193 0
1 -197 0
2 -197 0
3 -197 0
115 -197 0
197 -1 -2 -3 -115  0
-197 193 0
-1 -198 0
-2 -198 0
3 -198 0
7 -198 0
-9 -198 0
198 1 2 -3 -7 9  0
-198 193 0
-1 -199 0
-2 -199 0
3 -199 0
-7 -199 0
-9 -199 0
199 1 2 -3 7 9  0
-199 193 0
1 -200 0
2 -200 0
3 -200 0
9 -200 0
-115 -200 0
200 -1 -2 -3 -9 115  0
-200 193 0
1 -201 0
2 -201 0
3 -201 0
-9 -201 0
-115 -201 0
201 -1 -2 -3 9 115  0
-201 193 0
-1 -202 0
2 -202 0
-3 -202 0
39 -202 0
15 -202 0
202 1 -2 3 -39 -15  0
-202 193 0
-1 -203 0
2 -203 0
-3 -203 0
14 -203 0
-15 -203 0
203 1 -2 3 -14 15  0
-203 193 0
-1 -204 0
2 -204 0
-3 -204 0
-14 -204 0
-15 -204 0
204 1 -2 3 14 15  0
-204 193 0
-1 -205 0
2 -205 0
3 -205 0
-4 -205 0
17 -205 0
205 1 -2 -3 4 -17  0
-205 193 0
1 -206 0
2 -206 0
-3 -206 0
-4 -206 0
17 -206 0
206 -1 -2 3 4 -17  0
-206 193 0
1 -207 0
2 -207 0
-3 -207 0
-4 -207 0
9 -207 0
-13 -207 0
207 -1 -2 3 4 -9 13  0
-207 193 0
-1 -208 0
2 -208 0
-3 -208 0
6 -208 0
-39 -208 0
15 -208 0
208 1 -2 3 -6 39 -15  0
-208 193 0
-1 -209 0
2 -209 0
-3 -209 0
-6 -209 0
-39 -209 0
15 -209 0
209 1 -2 3 6 39 -15  0
-209 193 0
-1 -210 0
2 -210 0
3 -210 0
4 -210 0
-7 -210 0
8 -210 0
-9 -210 0
210 1 -2 -3 -4 7 -8 9  0
-210 193 0
-1 -211 0
2 -211 0
3 -211 0
4 -211 0
-7 -211 0
-8 -211 0
-9 -211 0
211 1 -2 -3 -4 7 8 9  0
-211 193 0
1 -212 0
2 -212 0
-3 -212 0
-4 -212 0
9 -212 0
-12 -212 0
13 -212 0
212 -1 -2 3 4 -9 12 -13  0
-212 193 0
-1 -213 0
2 -213 0
3 -213 0
-4 -213 0
-9 -213 0
16 -213 0
-17 -213 0
213 1 -2 -3 4 9 -16 17  0
-213 193 0
1 -214 0
2 -214 0
-3 -214 0
-4 -214 0
-9 -214 0
16 -214 0
-17 -214 0
214 -1 -2 3 4 9 -16 17  0
-214 193 0
-1 -215 0
2 -215 0
3 -215 0
-4 -215 0
-7 -215 0
-16 -215 0
-17 -215 0
215 1 -2 -3 4 7 16 17  0
-215 193 0
1 -216 0
2 -216 0
-3 -216 0
-4 -216 0
-5 -216 0
-6 -216 0
7 -216 0
-9 -216 0
11 -216 0
216 -1 -2 3 4 5 6 -7 9 -11  0
-216 193 0
-1 -217 0
2 -217 0
3 -217 0
-4 -217 0
-9 -217 0
110 -217 0
111 -217 0
-39 -217 0
40 -217 0
-16 -217 0
-17 -217 0
217 1 -2 -3 4 9 -110 -111 39 -40 16 17  0
-217 193 0
-1 -218 0
2 -218 0
3 -218 0
-4 -218 0
-109 -218 0
-9 -218 0
-110 -218 0
111 -218 0
-39 -218 0
40 -218 0
-16 -218 0
-17 -218 0
218 1 -2 -3 4 109 9 110 -111 39 -40 16 17  0
-218 193 0
-1 -219 0
2 -219 0
3 -219 0
-4 -219 0
-107 -219 0
109 -219 0
-9 -219 0
-110 -219 0
111 -219 0
-39 -219 0
40 -219 0
-16 -219 0
-17 -219 0
219 1 -2 -3 4 107 -109 9 110 -111 39 -40 16 17  0
-219 193 0
-1 -220 0
2 -220 0
3 -220 0
-4 -220 0
107 -220 0
108 -220 0
109 -220 0
-9 -220 0
-110 -220 0
111 -220 0
-39 -220 0
40 -220 0
-16 -220 0
-17 -220 0
220 1 -2 -3 4 -107 -108 -109 9 110 -111 39 -40 16 17  0
-220 193 0
-1 -221 0
2 -221 0
3 -221 0
-4 -221 0
107 -221 0
-108 -221 0
109 -221 0
-9 -221 0
-110 -221 0
111 -221 0
-39 -221 0
40 -221 0
-16 -221 0
-17 -221 0
221 1 -2 -3 4 -107 108 -109 9 110 -111 39 -40 16 17  0
-221 193 0
-193 194 195 196 197 198 199 200 201 202 203 204 205 206 207 208 209 210 211 212 213 214 215 216 217 218 219 220 221  0
1 -223 0
-2 -223 0
3 -223 0
223 -1 2 -3  0
-223 222 0
1 -224 0
-2 -224 0
-3 -224 0
-4 -224 0
224 -1 2 3 4  0
-224 222 0
-1 -225 0
2 -225 0
-3 -225 0
7 -225 0
225 1 -2 3 -7  0
-225 222 0
-2 -226 0
-3 -226 0
4 -226 0
38 -226 0
226 2 3 -4 -38  0
-226 222 0
-1 -227 0
-2 -227 0
3 -227 0
9 -227 0
227 1 2 -3 -9  0
-227 222 0
-1 -228 0
2 -228 0
3 -228 0
4 -228 0
7 -228 0
228 1 -2 -3 -4 -7  0
-228 222 0
-1 -229 0
-2 -229 0
3 -229 0
7 -229 0
-9 -229 0
229 1 2 -3 -7 9  0
-229 222 0
-1 -230 0
-2 -230 0
3 -230 0
-7 -230 0
-9 -230 0
230 1 2 -3 7 9  0
-230 222 0
-1 -231 0
2 -231 0
-3 -231 0
39 -231 0
15 -231 0
231 1 -2 3 -39 -15  0
-231 222 0
-1 -232 0
2 -232 0
-3 -232 0
14 -232 0
-15 -232 0
232 1 -2 3 -14 15  0
-232 222 0
-1 -233 0
2 -233 0
-3 -233 0
-14 -233 0
-15 -233 0
233 1 -2 3 14 15  0
-233 222 0
-1 -234 0
2 -234 0
-3 -234 0
15 -234 0
-40 -234 0
234 1 -2 3 -15 40  0
-234 222 0
-1 -235 0
2 -235 0
3 -235 0
4 -235 0
-7 -235 0
9 -235 0
235 1 -2 -3 -4 7 -9  0
-235 222 0
-1 -236 0
2 -236 0
-3 -236 0
6 -236 0
-39 -236 0
15 -236 0
236 1 -2 3 -6 39 -15  0
-236 222 0
-1 -237 0
2 -237 0
3 -237 0
-4 -237 0
9 -237 0
-17 -237 0
237 1 -2 -3 4 -9 17  0
-237 222 0
-1 -238 0
2 -238 0
3 -238 0
4 -238 0
-7 -238 0
8 -238 0
-9 -238 0
238 1 -2 -3 -4 7 -8 9  0
-238 222 0
-1 -239 0
2 -239 0
3 -239 0
4 -239 0
-7 -239 0
-8 -239 0
-9 -239 0
239 1 -2 -3 -4 7 8 9  0
-239 222 0
-1 -240 0
-2 -240 0
-3 -240 0
-4 -240 0
66 -240 0
-10 -240 0
14 -240 0
240 1 2 3 4 -66 10 -14  0
-240 222 0
-1 -241 0
-2 -241 0
-3 -241 0
-4 -241 0
66 -241 0
-10 -241 0
-14 -241 0
241 1 2 3 4 -66 10 14  0
-241 222 0
-1 -242 0
-2 -242 0
-3 -242 0
-4 -242 0
65 -242 0
-66 -242 0
-10 -242 0
14 -242 0
242 1 2 3 4 -65 66 10 -14  0
-242 222 0
-1 -243 0
-2 -243 0
-3 -243 0
-4 -243 0
65 -243 0
-66 -243 0
-10 -243 0
-14 -243 0
243 1 2 3 4 -65 66 10 14  0
-243 222 0
1 -244 0
2 -244 0
-3 -244 0
-4 -244 0
9 -244 0
12 -244 0
13 -244 0
-17 -244 0
244 -1 -2 3 4 -9 -12 -13 17  0
-244 222 0
1 -245 0
2 -245 0
-3 -245 0
-4 -245 0
7 -245 0
8 -245 0
-16 -245 0
-17 -245 0
245 -1 -2 3 4 -7 -8 16 17  0
-245 222 0
-1 -246 0
2 -246 0
3 -246 0
-4 -246 0
5 -246 0
-9 -246 0
-16 -246 0
-17 -246 0
246 1 -2 -3 4 -5 9 16 17  0
-246 222 0
1 -247 0
2 -247 0
-3 -247 0
-4 -247 0
5 -247 0
-9 -247 0
-16 -247 0
-17 -247 0
247 -1 -2 3 4 -5 9 16 17  0
-247 222 0
-1 -248 0
2 -248 0
3 -248 0
-4 -248 0
-6 -248 0
7 -248 0
-9 -248 0
-16 -248 0
-17 -248 0
248 1 -2 -3 4 6 -7 9 16 17  0
-248 222 0
-1 -249 0
2 -249 0
3 -249 0
-4 -249 0
-5 -249 0
8 -249 0
-9 -249 0
-16 -249 0
-17 -249 0
249 1 -2 -3 4 5 -8 9 16 17  0
-249 222 0
-1 -250 0
2 -250 0
3 -250 0
-4 -250 0
-5 -250 0
-8 -250 0
38 -250 0
-9 -250 0
-16 -250 0
-17 -250 0
250 1 -2 -3 4 5 8 -38 9 16 17  0
-250 222 0
1 -251 0
2 -251 0
-3 -251 0
-4 -251 0
-5 -251 0
-6 -251 0
7 -251 0
-8 -251 0
-9 -251 0
-11 -251 0
-16 -251 0
-17 -251 0
251 -1 -2 3 4 5 6 -7 8 9 11 16 17  0
-251 222 0
-1 -252 0
2 -252 0
3 -252 0
-4 -252 0
-5 -252 0
-6 -252 0
-7 -252 0
-8 -252 0
-9 -252 0
39 -252 0
-16 -252 0
-17 -252 0
252 1 -2 -3 4 5 6 7 8 9 -39 16 17  0
-252 222 0
-1 -253 0
2 -253 0
3 -253 0
-4 -253 0
-109 -253 0
-9 -253 0
-110 -253 0
111 -253 0
-39 -253 0
40 -253 0
-16 -253 0
-17 -253 0
253 1 -2 -3 4 109 9 110 -111 39 -40 16 17  0
-253 222 0
-1 -254 0
2 -254 0
3 -254 0
-4 -254 0
-5 -254 0
-6 -254 0
-7 -254 0
-8 -254 0
-9 -254 0
-39 -254 0
-40 -254 0
-16 -254 0
-17 -254 0
254 1 -2 -3 4 5 6 7 8 9 39 40 16 17  0
-254 222 0
-1 -255 0
2 -255 0
3 -255 0
-4 -255 0
107 -255 0
-108 -255 0
109 -255 0
-9 -255 0
-110 -255 0
111 -255 0
-39 -255 0
40 -255 0
-16 -255 0
-17 -255 0
255 1 -2 -3 4 -107 108 -109 9 110 -111 39 -40 16 17  0
-255 222 0
-222 223 224 225 226 227 228 229 230 231 232 233 234 235 236 237 238 239 240 241 242 243 244 245 246 247 248 249 250 251 252 253 254 255  0
1 -257 0
-2 -257 0
3 -257 0
5 -257 0
-9 -257 0
257 -1 2 -3 -5 9  0
-257 256 0
1 -258 0
2 -258 0
-3 -258 0
-4 -258 0
5 -258 0
-9 -258 0
-16 -258 0
-17 -258 0
258 -1 -2 3 4 -5 9 16 17  0
-258 256 0
-256 257 258  0
-1 -260 0
2 -260 0
3 -260 0
4 -260 0
7 -260 0
260 1 -2 -3 -4 -7  0
-260 259 0
-1 -261 0
2 -261 0
3 -261 0
4 -261 0
-7 -261 0
9 -261 0
261 1 -2 -3 -4 7 -9  0
-261 259 0
-1 -262 0
2 -262 0
3 -262 0
4 -262 0
-7 -262 0
-8 -262 0
-9 -262 0
262 1 -2 -3 -4 7 8 9  0
-262 259 0
-259 260 261 262  0
-1 -264 0
2 -264 0
3 -264 0
-4 -264 0
17 -264 0
264 1 -2 -3 4 -17  0
-264 263 0
-1 -265 0
2 -265 0
3 -265 0
-4 -265 0
9 -265 0
13 -265 0
-17 -265 0
265 1 -2 -3 4 -9 -13 17  0
-265 263 0
-1 -266 0
2 -266 0
3 -266 0
-4 -266 0
-9 -266 0
16 -266 0
-17 -266 0
266 1 -2 -3 4 9 -16 17  0
-266 263 0
-1 -267 0
2 -267 0
3 -267 0
-4 -267 0
5 -267 0
-9 -267 0
-16 -267 0
-17 -267 0
267 1 -2 -3 4 -5 9 16 17  0
-267 263 0
-1 -268 0
2 -268 0
3 -268 0
-4 -268 0
-6 -268 0
7 -268 0
-9 -268 0
-16 -268 0
-17 -268 0
268 1 -2 -3 4 6 -7 9 16 17  0
-268 263 0
-1 -269 0
2 -269 0
3 -269 0
-4 -269 0
-5 -269 0
8 -269 0
-9 -269 0
-16 -269 0
-17 -269 0
269 1 -2 -3 4 5 -8 9 16 17  0
-269 263 0
-1 -270 0
2 -270 0
3 -270 0
-4 -270 0
-9 -270 0
110 -270 0
111 -270 0
-39 -270 0
40 -270 0
-16 -270 0
-17 -270 0
270 1 -2 -3 4 9 -110 -111 39 -40 16 17  0
-270 263 0
-1 -271 0
2 -271 0
3 -271 0
-4 -271 0
-5 -271 0
-6 -271 0
-7 -271 0
-8 -271 0
-9 -271 0
39 -271 0
-16 -271 0
-17 -271 0
271 1 -2 -3 4 5 6 7 8 9 -39 16 17  0
-271 263 0
-1 -272 0
2 -272 0
3 -272 0
-4 -272 0
-109 -272 0
-9 -272 0
-110 -272 0
111 -272 0
-39 -272 0
40 -272 0
-16 -272 0
-17 -272 0
272 1 -2 -3 4 109 9 110 -111 39 -40 16 17  0
-272 263 0
-1 -273 0
2 -273 0
3 -273 0
-4 -273 0
-107 -273 0
109 -273 0
-9 -273 0
-110 -273 0
111 -273 0
-39 -273 0
40 -273 0
-16 -273 0
-17 -273 0
273 1 -2 -3 4 107 -109 9 110 -111 39 -40 16 17  0
-273 263 0
-1 -274 0
2 -274 0
3 -274 0
-4 -274 0
-5 -274 0
-6 -274 0
-7 -274 0
-8 -274 0
-9 -274 0
-39 -274 0
-40 -274 0
-16 -274 0
-17 -274 0
274 1 -2 -3 4 5 6 7 8 9 39 40 16 17  0
-274 263 0
-1 -275 0
2 -275 0
3 -275 0
-4 -275 0
107 -275 0
108 -275 0
109 -275 0
-9 -275 0
-110 -275 0
111 -275 0
-39 -275 0
40 -275 0
-16 -275 0
-17 -275 0
275 1 -2 -3 4 -107 -108 -109 9 110 -111 39 -40 16 17  0
-275 263 0
-1 -276 0
2 -276 0
3 -276 0
-4 -276 0
107 -276 0
-108 -276 0
109 -276 0
-9 -276 0
-110 -276 0
111 -276 0
-39 -276 0
40 -276 0
-16 -276 0
-17 -276 0
276 1 -2 -3 4 -107 108 -109 9 110 -111 39 -40 16 17  0
-276 263 0
-263 264 265 266 267 268 269 270 271 272 273 274 275 276  0
1 -278 0
2 -278 0
-3 -278 0
4 -278 0
278 -1 -2 3 -4  0
-278 277 0
-2 -279 0
-3 -279 0
4 -279 0
-38 -279 0
279 2 3 -4 38  0
-279 277 0
1 -280 0
2 -280 0
3 -280 0
115 -280 0
280 -1 -2 -3 -115  0
-280 277 0
1 -281 0
2 -281 0
3 -281 0
9 -281 0
-115 -281 0
281 -1 -2 -3 -9 115  0
-281 277 0
1 -282 0
2 -282 0
3 -282 0
-9 -282 0
-115 -282 0
282 -1 -2 -3 9 115  0
-282 277 0
-1 -283 0
2 -283 0
3 -283 0
-4 -283 0
17 -283 0
283 1 -2 -3 4 -17  0
-283 277 0
-1 -284 0
2 -284 0
3 -284 0
-4 -284 0
-9 -284 0
16 -284 0
-17 -284 0
284 1 -2 -3 4 9 -16 17  0
-284 277 0
-1 -285 0
2 -285 0
3 -285 0
-4 -285 0
-9 -285 0
110 -285 0
111 -285 0
-39 -285 0
40 -285 0
-16 -285 0
-17 -285 0
285 1 -2 -3 4 9 -110 -111 39 -40 16 17  0
-285 277 0
-1 -286 0
2 -286 0
3 -286 0
-4 -286 0
-107 -286 0
109 -286 0
-9 -286 0
-110 -286 0
111 -286 0
-39 -286 0
40 -286 0
-16 -286 0
-17 -286 0
286 1 -2 -3 4 107 -109 9 110 -111 39 -40 16 17  0
-286 277 0
-1 -287 0
2 -287 0
3 -287 0
-4 -287 0
107 -287 0
108 -287 0
109 -287 0
-9 -287 0
-110 -287 0
111 -287 0
-39 -287 0
40 -287 0
-16 -287 0
-17 -287 0
287 1 -2 -3 4 -107 -108 -109 9 110 -111 39 -40 16 17  0
-287 277 0
-277 278 279 280 281 282 283 284 285 286 287  0
-1 -289 0
-2 -289 0
-3 -289 0
-4 -289 0
66 -289 0
-10 -289 0
-14 -289 0
289 1 2 3 4 -66 10 14  0
-289 288 0
-1 -290 0
2 -290 0
3 -290 0
-4 -290 0
-109 -290 0
-9 -290 0
-110 -290 0
111 -290 0
-39 -290 0
40 -290 0
-16 -290 0
-17 -290 0
290 1 -2 -3 4 109 9 110 -111 39 -40 16 17  0
-290 288 0
-1 -291 0
2 -291 0
3 -291 0
-4 -291 0
107 -291 0
-108 -291 0
109 -291 0
-9 -291 0
-110 -291 0
111 -291 0
-39 -291 0
40 -291 0
-16 -291 0
-17 -291 0
291 1 -2 -3 4 -107 108 -109 9 110 -111 39 -40 16 17  0
-291 288 0
-288 289 290 291  0
-1 -293 0
2 -293 0
-3 -293 0
-5 -293 0
-6 -293 0
-7 -293 0
15 -293 0
293 1 -2 3 5 6 7 -15  0
-293 292 0
-292 293  0
1 -300 0
-2 -300 0
-3 -300 0
-4 -300 0
38 -300 0
300 -1 2 3 4 -38  0
-300 299 0
-2 -301 0
-3 -301 0
4 -301 0
6 -301 0
297 -301 0
301 2 3 -4 -6 -297  0
-301 299 0
1 -302 0
2 -302 0
-3 -302 0
-4 -302 0
17 -302 0
302 -1 -2 3 4 -17  0
-302 299 0
1 -303 0
-2 -303 0
-3 -303 0
-4 -303 0
-6 -303 0
-38 -303 0
297 -303 0
303 -1 2 3 4 6 38 -297  0
-303 299 0
1 -304 0
2 -304 0
-3 -304 0
-4 -304 0
-9 -304 0
16 -304 0
-17 -304 0
304 -1 -2 3 4 9 -16 17  0
-304 299 0
1 -305 0
2 -305 0
-3 -305 0
-4 -305 0
-5 -305 0
-6 -305 0
7 -305 0
-9 -305 0
11 -305 0
305 -1 -2 3 4 5 6 -7 9 -11  0
-305 299 0
1 -306 0
-2 -306 0
3 -306 0
-4 -306 0
109 -306 0
-9 -306 0
-115 -306 0
14 -306 0
15 -306 0
306 -1 2 -3 4 -109 9 115 -14 -15  0
-306 299 0
-1 -307 0
-2 -307 0
3 -307 0
-5 -307 0
-6 -307 0
-7 -307 0
297 -307 0
-9 -307 0
-298 -307 0
-39 -307 0
15 -307 0
40 -307 0
307 1 2 -3 5 6 7 -297 9 298 39 -15 -40  0
-307 299 0
-1 -308 0
2 -308 0
-3 -308 0
-5 -308 0
-6 -308 0
-7 -308 0
297 -308 0
-9 -308 0
-39 -308 0
14 -308 0
-15 -308 0
40 -308 0
308 1 -2 3 5 6 7 -297 9 39 -14 15 -40  0
-308 299 0
-1 -309 0
-2 -309 0
-3 -309 0
-4 -309 0
-5 -309 0
-6 -309 0
-7 -309 0
-109 -309 0
-296 -309 0
297 -309 0
-9 -309 0
65 -309 0
-10 -309 0
-39 -309 0
14 -309 0
15 -309 0
40 -309 0
309 1 2 3 4 5 6 7 109 296 -297 9 -65 10 39 -14 -15 -40  0
-309 299 0
-1 -310 0
-2 -310 0
-3 -310 0
-4 -310 0
-5 -310 0
-6 -310 0
-7 -310 0
-294 -310 0
-295 -310 0
-109 -310 0
297 -310 0
-9 -310 0
65 -310 0
-10 -310 0
-39 -310 0
14 -310 0
15 -310 0
40 -310 0
310 1 2 3 4 5 6 7 294 295 109 -297 9 -65 10 39 -14 -15 -40  0
-310 299 0
-1 -311 0
-2 -311 0
-3 -311 0
-4 -311 0
-5 -311 0
-6 -311 0
-7 -311 0
-294 -311 0
-295 -311 0
-109 -311 0
297 -311 0
-9 -311 0
-65 -311 0
66 -311 0
-10 -311 0
-39 -311 0
14 -311 0
15 -311 0
40 -311 0
311 1 2 3 4 5 6 7 294 295 109 -297 9 65 -66 10 39 -14 -15 -40  0
-311 299 0
-1 -312 0
-2 -312 0
-3 -312 0
-4 -312 0
-5 -312 0
-6 -312 0
-7 -312 0
294 -312 0
-295 -312 0
-109 -312 0
-296 -312 0
297 -312 0
-9 -312 0
-65 -312 0
66 -312 0
-10 -312 0
-39 -312 0
14 -312 0
15 -312 0
40 -312 0
312 1 2 3 4 5 6 7 -294 295 109 296 -297 9 65 -66 10 39 -14 -15 -40  0
-312 299 0
-299 300 301 302 303 304 305 306 307 308 309 310 311 312  0
-1 -314 0
-2 -314 0
-3 -314 0
-4 -314 0
-65 -314 0
-66 -314 0
17 -314 0
314 1 2 3 4 65 66 -17  0
-314 313 0
-313 314  0
1 -316 0
-2 -316 0
3 -316 0
-4 -316 0
-14 -316 0
316 -1 2 -3 4 14  0
-316 315 0
1 -317 0
-2 -317 0
3 -317 0
4 -317 0
-15 -317 0
317 -1 2 -3 -4 15  0
-317 315 0
1 -318 0
-2 -318 0
3 -318 0
-4 -318 0
-15 -318 0
318 -1 2 -3 4 15  0
-318 315 0
-1 -319 0
2 -319 0
-3 -319 0
14 -319 0
-15 -319 0
319 1 -2 3 -14 15  0
-319 315 0
-315 316 317 318 319  0
1 -321 0
-2 -321 0
3 -321 0
-4 -321 0
-14 -321 0
321 -1 2 -3 4 14  0
-321 320 0
1 -322 0
-2 -322 0
3 -322 0
-4 -322 0
-15 -322 0
322 -1 2 -3 4 15  0
-322 320 0
-1 -323 0
2 -323 0
-3 -323 0
-14 -323 0
-15 -323 0
323 1 -2 3 14 15  0
-323 320 0
-1 -324 0
-2 -324 0
-3 -324 0
-4 -324 0
66 -324 0
-10 -324 0
-14 -324 0
324 1 2 3 4 -66 10 14  0
-324 320 0
-1 -325 0
-2 -325 0
-3 -325 0
-4 -325 0
65 -325 0
-66 -325 0
-10 -325 0
-14 -325 0
325 1 2 3 4 -65 66 10 14  0
-325 320 0
-320 321 322 323 324 325  0
-1 -327 0
2 -327 0
3 -327 0
-4 -327 0
107 -327 0
-108 -327 0
109 -327 0
-9 -327 0
-110 -327 0
111 -327 0
-39 -327 0
40 -327 0
-16 -327 0
-17 -327 0
327 1 -2 -3 4 -107 108 -109 9 110 -111 39 -40 16 17  0
-327 326 0
-326 327  0
1 -329 0
2 -329 0
-3 -329 0
4 -329 0
329 -1 -2 3 -4  0
-329 328 0
1 -330 0
2 -330 0
3 -330 0
9 -330 0
-115 -330 0
330 -1 -2 -3 -9 115  0
-330 328 0
-328 329 330  0
1 -332 0
2 -332 0
-3 -332 0
4 -332 0
332 -1 -2 3 -4  0
-332 331 0
-2 -333 0
-3 -333 0
4 -333 0
-38 -333 0
333 2 3 -4 38  0
-333 331 0
1 -334 0
2 -334 0
3 -334 0
115 -334 0
334 -1 -2 -3 -115  0
-334 331 0
1 -335 0
2 -335 0
3 -335 0
9 -335 0
-115 -335 0
335 -1 -2 -3 -9 115  0
-335 331 0
1 -336 0
2 -336 0
3 -336 0
-9 -336 0
-115 -336 0
336 -1 -2 -3 9 115  0
-336 331 0
-1 -337 0
2 -337 0
3 -337 0
-4 -337 0
17 -337 0
337 1 -2 -3 4 -17  0
-337 331 0
-1 -338 0
2 -338 0
3 -338 0
-4 -338 0
-9 -338 0
16 -338 0
-17 -338 0
338 1 -2 -3 4 9 -16 17  0
-338 331 0
-1 -339 0
2 -339 0
-3 -339 0
-5 -339 0
-6 -339 0
-7 -339 0
-39 -339 0
40 -339 0
339 1 -2 3 5 6 7 39 -40  0
-339 331 0
-1 -340 0
2 -340 0
3 -340 0
-4 -340 0
-9 -340 0
110 -340 0
111 -340 0
-39 -340 0
40 -340 0
-16 -340 0
-17 -340 0
340 1 -2 -3 4 9 -110 -111 39 -40 16 17  0
-340 331 0
-1 -341 0
2 -341 0
3 -341 0
-4 -341 0
-109 -341 0
-9 -341 0
-110 -341 0
111 -341 0
-39 -341 0
40 -341 0
-16 -341 0
-17 -341 0
341 1 -2 -3 4 109 9 110 -111 39 -40 16 17  0
-341 331 0
-1 -342 0
2 -342 0
3 -342 0
-4 -342 0
-107 -342 0
109 -342 0
-9 -342 0
-110 -342 0
111 -342 0
-39 -342 0
40 -342 0
-16 -342 0
-17 -342 0
342 1 -2 -3 4 107 -109 9 110 -111 39 -40 16 17  0
-342 331 0
-1 -343 0
2 -343 0
3 -343 0
-4 -343 0
107 -343 0
108 -343 0
109 -343 0
-9 -343 0
-110 -343 0
111 -343 0
-39 -343 0
40 -343 0
-16 -343 0
-17 -343 0
343 1 -2 -3 4 -107 -108 -109 9 110 -111 39 -40 16 17  0
-343 331 0
-331 332 333 334 335 336 337 338 339 340 341 342 343  0
